
Gurobi 11.0.1 (win64) logging started Tue May 14 15:50:12 2024

Set parameter LogFile to value "output/solver_log4.txt"
Gurobi Optimizer version 11.0.1 build v11.0.1rc0 (win64 - Windows 11.0 (22631.2))

CPU model: 11th Gen Intel(R) Core(TM) i7-1165G7 @ 2.80GHz, instruction set [SSE2|AVX|AVX2|AVX512]
Thread count: 4 physical cores, 8 logical processors, using up to 8 threads

Optimize a model with 2225 rows, 432 columns and 41714 nonzeros
Model fingerprint: 0x5ee9c16f
Variable types: 248 continuous, 184 integer (184 binary)
Coefficient statistics:
  Matrix range     [4e-01, 1e+05]
  Objective range  [1e+00, 1e+02]
  Bounds range     [1e+00, 1e+00]
  RHS range        [1e-02, 1e+05]

User MIP start produced solution with objective 39644.8 (0.00s)
User MIP start produced solution with objective 39644.8 (0.01s)
Loaded user MIP start with objective 39644.8

Presolve removed 99 rows and 99 columns
Presolve time: 0.04s
Presolved: 2126 rows, 333 columns, 41042 nonzeros
Variable types: 233 continuous, 100 integer (96 binary)

Root relaxation: objective 4.359876e+04, 575 iterations, 0.03 seconds (0.06 work units)

    Nodes    |    Current Node    |     Objective Bounds      |     Work
 Expl Unexpl |  Obj  Depth IntInf | Incumbent    BestBd   Gap | It/Node Time

     0     0 43598.7644    0   14 39644.8126 43598.7644  10.0%     -    0s
     0     0 43400.9046    0   13 39644.8126 43400.9046  9.47%     -    0s
     0     0 42134.3459    0   15 39644.8126 42134.3459  6.28%     -    0s
     0     0 41316.9347    0   12 39644.8126 41316.9347  4.22%     -    0s
     0     0 40470.2452    0   12 39644.8126 40470.2452  2.08%     -    0s
     0     0 40175.7252    0   11 39644.8126 40175.7252  1.34%     -    0s
     0     0 40175.7252    0   11 39644.8126 40175.7252  1.34%     -    0s
     0     0 40153.2667    0   22 39644.8126 40153.2667  1.28%     -    0s
     0     0 40096.6471    0   23 39644.8126 40096.6471  1.14%     -    0s
     0     0 40096.6471    0   23 39644.8126 40096.6471  1.14%     -    0s
     0     0 40044.0830    0   19 39644.8126 40044.0830  1.01%     -    0s
     0     0 39994.8395    0   21 39644.8126 39994.8395  0.88%     -    0s
     0     0 39960.6598    0   18 39644.8126 39960.6598  0.80%     -    0s
     0     0 39960.4088    0   18 39644.8126 39960.4088  0.80%     -    0s
     0     0 39946.6514    0   17 39644.8126 39946.6514  0.76%     -    0s
H    0     0                    39654.798804 39939.3621  0.72%     -    0s
     0     0 39939.3621    0   17 39654.7988 39939.3621  0.72%     -    0s
     0     0 39900.9561    0   23 39654.7988 39900.9561  0.62%     -    0s
     0     0 39801.9231    0   23 39654.7988 39801.9231  0.37%     -    0s
     0     0 39801.9231    0   23 39654.7988 39801.9231  0.37%     -    0s

Cutting planes:
  Gomory: 1
  Cover: 1
  Implied bound: 5
  MIR: 15
  RLT: 3
  BQP: 1

Explored 1 nodes (4808 simplex iterations) in 0.95 seconds (1.16 work units)
Thread count was 8 (of 8 available processors)

Solution count 3: 39654.8 39654.8 39644.8 

Optimal solution found (tolerance 1.00e-04)
Best objective 3.965479880356e+04, best bound 3.965628970015e+04, gap 0.0038%
